c Random generated cnf formula, satisfiable: false
p cnf 10 50
4 -10 -7 0
8 -4 -9 0
-10 9 6 0
2 5 7 0
8 -6 3 0
6 7 3 0
8 6 -4 0
-10 -5 1 0
4 1 5 0
-7 -5 4 0
7 -10 2 0
1 8 4 0
-4 -7 -3 0
7 -4 9 0
7 2 -3 0
9 2 -5 0
-7 -10 -2 0
9 5 -7 0
-6 2 9 0
-2 -3 -9 0
7 9 -10 0
-2 3 6 0
5 2 10 0
-5 7 2 0
5 -4 6 0
2 -1 7 0
3 -10 -1 0
-2 6 10 0
-6 7 -5 0
5 -8 3 0
3 2 -5 0
6 9 -10 0
-10 5 2 0
-6 -8 -9 0
-5 -7 6 0
-7 -4 6 0
-2 -8 -1 0
-2 -10 -8 0
4 -2 6 0
-8 5 9 0
-3 1 4 0
1 -2 9 0
8 -3 -5 0
-7 4 6 0
-6 -2 9 0
6 -4 3 0
-5 -9 1 0
-10 8 5 0
-8 -3 6 0
3 -6 2 0
